Set parameter TokenServer to value "hpc-licenses.hpcc.usc.edu"
Set parameter TimeLimit to value 3600
Gurobi Optimizer version 9.5.1 build v9.5.1rc2 (linux64)
Thread count: 20 physical cores, 20 logical processors, using up to 20 threads
Optimize a model with 6007 rows, 4529 columns and 24534 nonzeros
Model fingerprint: 0x06c3c0f7
Variable types: 4506 continuous, 23 integer (23 binary)
Coefficient statistics:
  Matrix range     [1e+00, 1e+00]
  Objective range  [8e-04, 1e+00]
  Bounds range     [1e+00, 1e+00]
  RHS range        [1e+00, 2e+02]
Presolve removed 1520 rows and 1515 columns
Presolve time: 0.05s
Presolved: 4487 rows, 3014 columns, 21975 nonzeros
Variable types: 2994 continuous, 20 integer (20 binary)
Found heuristic solution: objective 263.0365208

Root relaxation: objective 2.734053e+02, 2764 iterations, 0.10 seconds (0.16 work units)

    Nodes    |    Current Node    |     Objective Bounds      |     Work
 Expl Unexpl |  Obj  Depth IntInf | Incumbent    BestBd   Gap | It/Node Time

     0     0  273.40529    0    2  263.03652  273.40529  3.94%     -    0s
     0     0  273.37261    0    2  263.03652  273.37261  3.93%     -    0s
     0     0  273.32564    0    2  263.03652  273.32564  3.91%     -    0s
H    0     0                     264.1984761  272.76033  3.24%     -    0s
     0     0  272.76033    0    3  264.19848  272.76033  3.24%     -    0s
     0     0  272.71885    0    3  264.19848  272.71885  3.22%     -    0s
     0     0  272.65690    0    3  264.19848  272.65690  3.20%     -    0s
     0     0  272.40733    0    3  264.19848  272.40733  3.11%     -    0s
     0     0  272.40733    0    3  264.19848  272.40733  3.11%     -    0s
     0     0  272.39896    0    3  264.19848  272.39896  3.10%     -    0s
     0     0  272.34518    0    3  264.19848  272.34518  3.08%     -    0s
     0     0  272.31364    0    3  264.19848  272.31364  3.07%     -    0s
     0     0  272.24095    0    4  264.19848  272.24095  3.04%     -    0s
     0     0  272.24095    0    3  264.19848  272.24095  3.04%     -    0s
H    0     0                     271.7063584  272.24095  0.20%     -    0s
     0     0  272.24095    0    3  271.70636  272.24095  0.20%     -    0s
     0     0  272.24095    0    2  271.70636  272.24095  0.20%     -    1s
     0     0  272.24095    0    2  271.70636  272.24095  0.20%     -    1s
     0     0  272.24095    0    2  271.70636  272.24095  0.20%     -    2s
     0     0  272.24095    0    2  271.70636  272.24095  0.20%     -    2s
     0     0  272.24095    0    2  271.70636  272.24095  0.20%     -    2s
     0     0  272.24095    0    2  271.70636  272.24095  0.20%     -    2s
     0     0  272.24095    0    3  271.70636  272.24095  0.20%     -    2s
     0     0  272.24095    0    3  271.70636  272.24095  0.20%     -    2s
     0     0  272.24095    0    3  271.70636  272.24095  0.20%     -    2s
     0     0  272.24095    0    3  271.70636  272.24095  0.20%     -    2s
     0     0  272.24065    0    3  271.70636  272.24065  0.20%     -    2s
     0     0  272.23243    0    2  271.70636  272.23243  0.19%     -    2s

Cutting planes:
  Gomory: 3
  MIR: 453
  Flow cover: 2
  RLT: 4
  Relax-and-lift: 1

Explored 1 nodes (6724 simplex iterations) in 2.47 seconds (1.33 work units)
Thread count was 20 (of 20 available processors)

Solution count 3: 271.706 264.198 263.037 

Optimal solution found (tolerance 1.00e-04)
Best objective 2.717063583500e+02, best bound 2.717063583500e+02, gap 0.0000%



#########node  1
V1.7
#########node  2
0.0,1.0
#########node  3
0.9631728045325777,0.0368271954674223


Total Solving Time 2.8315701484680176
obj value 271.70635835000667
Policy Regret train (Sum) 9.912030792665206
Best Treatment Found train (%) 57.599999999999994
treatment classification acc train (%) 52.0
Policy Regret test (Sum) 38.72832714295484
Best Treatment Found test (%) 81.04
treatment classification acc test (%) 50.74999999999999
